c clasp version 2.1.1
c Reading from p65.cnf
c Solving...
s SATISFIABLE

c Models        : 1+    
c Time          : 9.609s (Solving: 8.00s 1st Model: 8.00s Unsat: 0.00s)
c CPU Time      : 9.580s
c Choices       : 31760
c Conflicts     : 17209
c Restarts      : 2      (Average: 8604.50 Last: 1097)

c Variables     : 230655 (Eliminated: 71853 Frozen:    0)
c Constraints   : 259561 (Binary: 64.9% Ternary: 33.8% Other:  1.2%)
c Lemmas        : 17209  (Binary:  0.1% Ternary:  0.1% Other: 99.9%)
c   Conflict    : 17209  (Average Length: 403.6) 
c   Loop        : 0      (Average Length: 0.0) 
c   Other       : 0      (Average Length: 0.0)
c   Deleted     : 4998  
